set NODI := a b c d;

param k := 4; 

param s :=

a 20
b 20
c 20
d 20 ;

param c :=

a 22
b 23
c 17
d 18 ;

param t :=

a b 4
b a 4
a c 12
c a 12
a d 1
d a 1
b c 2
c b 2
b d 6
d b 6
c d 9 
d c 9 ;
